*...+....1....+....2....+....3....+....4....+....5....+....6....+....7....+....8
TITLE
70 MeV proton beam irradiating a 10 cm water cube phantom
DEFAULTS                                                              HADROTHE
*
BEAM      -7.000E-02                                                  PROTON    
BEAMPOS          0.0       0.0     -30.0
BEAMAXES         0.0       0.0       1.0       1.0       0.0       0.0
*
GEOBEGIN                                                              COMBNAME
    0    0
RPP world      -100.0 +100.0 -100.0 +100.0 -100.0 +100.0
RPP airbox     -50.0 +50.0 -50.0 +50.0 -50.0 +50.0
RPP watbox     -5.0 +5.0 -5.0 +5.0 -5.0 +5.0
END
regBH        5 +world -airbox
regAIR       5 +airbox -watbox
regWAT       5 +watbox
END
GEOEND
*
ASSIGNMA    BLCKHOLE     regBH
ASSIGNMA         AIR    regAIR
ASSIGNMA       WATER    regWAT
*
EMFCUT       -1.0E-6    1.0E-6              regAIR  @LASTREG
EMFCUT       -1.0E-6    1.0E-6    1.0E-5  BLCKHOLE  @LASTMAT           PROD-CUT
MULSOPT                      1       2.0         1         1           GLOBHAD
*
* Dose in water cube (Cartesian mesh over watbox)
USRBIN          10.0      DOSE     -30.0       5.0       5.0       5.0 DOSEWAT
USRBIN          -5.0      -5.0      -5.0       100       100       100 &
*
* Track-length proton fluence in water region
USRTRACK        -1.0    PROTON     -31.0    regWAT       0.0     100.0 TRKFLU
USRTRACK        0.07    1.0E-6      -6.0       0.0       0.0       0.0 &
*
* Boundary-crossing proton fluence from air to water
USRBDX          99.0    PROTON     -32.0    regAIR    regWAT       0.0 UWAT
USRBDX          0.07    1.0E-6     100.0                              &         
*
* Energy deposition mesh in water cube
USRBIN          10.0    ENERGY     -33.0       5.0       5.0       5.0 EDEPWAT
USRBIN          -5.0      -5.0      -5.0       100       100       100 &
*
RANDOMIZ         1.0    145789
START       50000000
STOP
