TITLE

*Set the defaults for precision simulations
DEFAULTS                                                              PRECISIO
*Define the beam characteristics
!@scale=100
BEAM          -0.126    0.0005       5.0       5.0       5.0          PROTON
*Define the beam position
BEAMPOS          -20       0.0      0.65
BEAMAXES         0.0       0.0       1.0       1.0       0.0       0.0
GEOBEGIN                                                              COMBNAME
    0    0          
*Black body
SPH blkbody    0.0 0.0 0.0 1000.0
*Void sphere
SPH air        0.0 0.0 0.0 100.0
*Void sphere
SPH Source     -20 0.0 0.0 0.1
*Cylindrical gas target
RCC target     -10.5 0.0 0 0 0 1.3 0.65
RPP Water_Ph   -12.5 12.5 -12.5 12.5 -12.5 12.5
RCC Cathode    -10.5 0 0 0 0 1.3 0.75
RCC Rexo       -10.5 0 -0.1 0 0 1.5 0.8
END
*Black hole
BLKBODY      5 +blkbody -air
*Void around the casing
AIR          5 +air -Water_Ph-Source
*Source
SOURCE       5 +Source
*Target
TARGET       5 +target
Water_Ph     5 +Water_Ph-Rexo-Cathode
Cathode      5 +Cathode-target
Rexo         5 +Rexo-Cathode-target
END
GEOEND
*264 Tissue-Eq.Gas (Propane Based)
MATERIAL                      7.6923E-05                              Tissue-E
COMPOUND      -10.13  HYDROGEN    -77.55    CARBON     -3.51  NITROGENA-150
COMPOUND       -5.23    OXYGEN    -1.742  FLUORINE    -1.838   CALCIUMA-150
COMPOUND   -0.102672  HYDROGEN  -0.56894    CARBON -0.035022  NITROGENTissue-E
COMPOUND   -0.293366    OXYGEN                                        Tissue-E
*A-150 Tissue-Equiv. Plastic
*from: ICRU Report #37, 1984, pub. by ICRU, Bethesda, Md, 20814, USA.
MATERIAL                           1.127                              A-150
MATERIAL           9            0.001696                              FLUORINE
*264 Tissue-Eq.Gas (Propane Based)
MATERIAL                       0.0018263                              ICRU-264
COMPOUND   -0.102672  HYDROGEN  -0.56894    CARBON -0.035022  NITROGENICRU-264
COMPOUND   -0.293366    OXYGEN                                        ICRU-264
*..+....1....+....2....+....3....+....4....+....5....+....6....+....7..
ASSIGNMA    BLCKHOLE   BLKBODY
ASSIGNMA         AIR       AIR
ASSIGNMA         AIR    SOURCE
ASSIGNMA    Tissue-E    TARGET
ASSIGNMA       WATER  Water_Ph
ASSIGNMA       A-150   Cathode
ASSIGNMA    POLYSTYR      Rexo
*
*Energy Deposition the the SV
DETECT         -2000       0.0  200.0E-6                        TARGETEngy_SV
EMFCUT        -1E-06      1E-7             BLKBODY  @LASTREG
EMFCUT        -1E-06      1E-7            BLCKHOLE  @LASTMAT          PROD-CUT
DELTARAY        1E-6                      BLCKHOLE  @LASTMAT
*
*Sets the size of electron steps corresponding to a fixed fraction of the total energy.
EMFFIX      Tissue-E     0.001     A-150     0.005  POLYSTYR     0.005NOPRINT
*
MULSOPT                      1       2.0         1         1          GLOBHAD
USRBIN            10    PROTON       -40        20        15        15Pr_Surce
USRBIN           -15       -15       -15       500       500       500 &
USRBIN            10      DOSE       -42        15        15        15Dose_H2O
USRBIN           -15       -15       -15       500       500       500 &
USRBDX            99    PROTON       -41    SOURCE       AIR          Source_Phi
USRBDX        100E-3                 500                               &
USRBDX            99    PROTON       -43  Water_Ph    TARGET          Pr_Phi_H2O
USRBDX        100E-3                 500                               &
*Set the random number seed
RANDOMIZ         1.0   3252521
*Set the number of primary histories to be simulated in the run
START         100000
STOP
